NAME: GRASP_28_12
TYPE: TSP
COMMENT: line_28_12
DIMENSION: 28
EDGE_WEIGHT_TYPE: EUC_2D
NODE_COORD_SECTION
1 2346 2353
2 2740 2720
3 929 4435
4 2325 3926
5 2324 1584
6 2299 1458
7 1647 3445
8 1206 1720
9 3243 2430
10 2689 1997
11 4225 706
12 2334 711
13 3700 1521
14 2713 2479
15 2722 1178
16 618 4778
17 833 1082
18 2870 3085
19 4860 1158
20 2399 4591
21 1457 588
22 990 2899
23 1612 3200
24 4592 570
25 1357 2105
26 2000 4155
27 3831 2678
28 2697 4880
